\ Model Cl_35_Ins_4.lp
\ LP format - for model browsing. Use MPS format to capture full model detail.
Maximize
 
Subject To
 obj1: y[0] = 0
 obj2: y[1] = 0
 obj1_Exp: - y[0] + 97 x[0] + 94 x[1] + 91 x[2] + 86 x[3] + 84 x[4]
   + 71 x[5] + 69 x[6] + 63 x[7] + 60 x[8] + 54 x[9] + 52 x[10] + 49 x[11]
   + 49 x[12] + 48 x[13] + 48 x[14] + 43 x[15] + 41 x[16] + 39 x[17]
   + 39 x[18] + 39 x[19] + 38 x[20] + 36 x[21] + 34 x[22] + 32 x[23]
   + 24 x[24] + 22 x[25] + 22 x[26] + 19 x[27] + 16 x[28] + 13 x[29]
   + 10 x[30] + 8 x[31] + 4 x[32] + 3 x[33] + 2 x[34] = 0
 obj2_Exp: - y[1] + 68 x[0] + 28 x[1] + 66 x[2] + 62 x[3] + 85 x[4]
   + 11 x[5] + 37 x[6] + 30 x[7] + 17 x[8] + 23 x[9] + 49 x[10] + 95 x[11]
   + 76 x[12] + x[13] + 75 x[14] + 67 x[15] + 84 x[16] + 40 x[17]
   + 34 x[18] + 74 x[19] + 75 x[20] + 22 x[21] + 25 x[22] + 96 x[23]
   + 88 x[24] + 79 x[25] + 61 x[26] + 99 x[27] + 33 x[28] + 2 x[29]
   + 52 x[30] + 5 x[31] + 97 x[32] + 73 x[33] + 72 x[34] = 0
 Budget: 107 x[0] + 104 x[1] + 101 x[2] + 96 x[3] + 94 x[4] + 81 x[5]
   + 79 x[6] + 73 x[7] + 70 x[8] + 64 x[9] + 62 x[10] + 59 x[11] + 59 x[12]
   + 58 x[13] + 58 x[14] + 53 x[15] + 51 x[16] + 49 x[17] + 49 x[18]
   + 49 x[19] + 48 x[20] + 46 x[21] + 44 x[22] + 42 x[23] + 34 x[24]
   + 32 x[25] + 32 x[26] + 29 x[27] + 26 x[28] + 23 x[29] + 20 x[30]
   + 18 x[31] + 14 x[32] + 13 x[33] + 12 x[34] <= 712
Bounds
Binaries
 x[0] x[1] x[2] x[3] x[4] x[5] x[6] x[7] x[8] x[9] x[10] x[11] x[12] x[13]
 x[14] x[15] x[16] x[17] x[18] x[19] x[20] x[21] x[22] x[23] x[24] x[25]
 x[26] x[27] x[28] x[29] x[30] x[31] x[32] x[33] x[34]
Generals
 y[0] y[1]
End
